week_length = 7;
nb_workers = 39;
min_daysoff = 1;
max_daysoff = 4;
min_work = 4;
max_work = 6;
nb_shifts = 3;
shift_name = ["D", "A", "N"];
shift_block_min = [2, 3, 3];
shift_block_max = [5, 4, 4];
nb_forbidden = 3;
forbidden_before = [3, 3, 2];
forbidden_after = [1, 2, 1];
temp_req = array2d(1..3,1..7,[11, 11, 11, 11, 11, 11, 11, 9, 9, 9, 9, 9, 9, 9, 8, 8, 8, 8, 8, 8, 8]);
